output ["run = ",_toString_Run(run,true,false),";\n","c = ",showDzn(c),";\n","n = ",showDzn(n),";\n","ub = ",showDzn(ub),";\n","f = ",showDzn(f),";\n","u = ",showDzn(u),";\n","k = ",showDzn(k),";\n","x = \n",let {array [int] of string: X_INTRODUCED_16627_ = [], array [int] of string: X_INTRODUCED_16628_ = [], array [int,int] of string: X_INTRODUCED_16629_ = [(X_INTRODUCED_16625_, X_INTRODUCED_16626_) : showDzn(x[X_INTRODUCED_16625_,X_INTRODUCED_16626_]) | X_INTRODUCED_16625_ in index_set_1of2(x), X_INTRODUCED_16626_ in index_set_2of2(x)]} in (show2d_indexed(X_INTRODUCED_16627_,X_INTRODUCED_16628_,X_INTRODUCED_16629_)),";\n","y_vars = ",showDzn(y_vars),";\n","obj = ",showDzn(obj),";\n"];
function string : _toString_Run(opt int: X_INTRODUCED_0_,bool: X_INTRODUCED_1_,bool: X_INTRODUCED_2_) = if occurs(X_INTRODUCED_0_) then if X_INTRODUCED_1_ then showDznId(_enum_to_string_0_Run[deopt(X_INTRODUCED_0_)]) elseif X_INTRODUCED_2_ then ("{\"e\":"++show(_enum_to_string_0_Run[deopt(X_INTRODUCED_0_)]))++"}" else _enum_to_string_0_Run[deopt(X_INTRODUCED_0_)] endif else if X_INTRODUCED_2_ then "null" else "<>" endif endif;
array [1..10] of set of int: s = [{0,22},{0,20},{0,19},{0,18},{0,11},{0,8},{0,8},{0,4},0..0,0..0];
set of int: L = 1..5;
int: k = 39;
array [1..50] of set of int: X_INTRODUCED_32_;
array [L,index_set(s)] of set of int: x = array2d(1..5,1..10,X_INTRODUCED_32_);
int: obj = sum([card(xi) | xi in x]);
array [1..2] of int: X_INTRODUCED_109_;
record(int: pairs, array [int,int] of int: y): X_INTRODUCED_112_ = (pairs: 1,y: X_INTRODUCED_109_);
array [1..4] of int: X_INTRODUCED_103_;
record(int: pairs, array [int,int] of int: y): X_INTRODUCED_108_ = (pairs: 2,y: X_INTRODUCED_103_);
array [1..6] of int: X_INTRODUCED_95_;
record(int: pairs, array [int,int] of int: y): X_INTRODUCED_102_ = (pairs: 3,y: X_INTRODUCED_95_);
array [1..10] of int: X_INTRODUCED_83_;
record(int: pairs, array [int,int] of int: y): X_INTRODUCED_94_ = (pairs: 5,y: X_INTRODUCED_83_);
array [1..4] of record(int: pairs, array [int,int] of int: y): y_pairs = [X_INTRODUCED_94_,X_INTRODUCED_102_,X_INTRODUCED_108_,X_INTRODUCED_112_];
array [int] of int: y_vars = [y_j | z_i in y_pairs, y_j in z_i.y];
int: u = 110;
float: f = 0.35;
int: ub = 30;
int: n = 9;
array [1..10] of int: c = [0,22,8,18,8,4,20,11,19,0];
array [1..3] of string: _enum_to_string_0_Run = ["BASELINE","BEST","WORST"];
int: run = 2;
